sat
(model
  (define-fun |m$unknown:2|
    ( (v_0 Int) (v_1 Int) ) Bool
    (and (or (= (+ v_0 (- 91)) 0) (>= v_1 100)) (or (= (+ v_0 (- 91)) 0) (and (>= v_0 91) (>= v_1 100) (= (+ (* (- 1) v_1) v_0 10) 0) (not (= (+ v_0 (- 91)) 0)))))
  )
)
